p cnf 81 2241
1 10 19 28 37 46 55 64 73 0
2 11 20 29 38 47 56 65 74 0
3 12 21 30 39 48 57 66 75 0
4 13 22 31 40 49 58 67 76 0
5 14 23 32 41 50 59 68 77 0
6 15 24 33 42 51 60 69 78 0
7 16 25 34 43 52 61 70 79 0
8 17 26 35 44 53 62 71 80 0
9 18 27 36 45 54 63 72 81 0
-1 -11 0
-1 -12 0
-1 -13 0
-1 -14 0
-1 -15 0
-1 -16 0
-1 -17 0
-1 -18 0
-2 -10 0
-2 -12 0
-2 -13 0
-2 -14 0
-2 -15 0
-2 -16 0
-2 -17 0
-2 -18 0
-3 -10 0
-3 -11 0
-3 -13 0
-3 -14 0
-3 -15 0
-3 -16 0
-3 -17 0
-3 -18 0
-4 -10 0
-4 -11 0
-4 -12 0
-4 -14 0
-4 -15 0
-4 -16 0
-4 -17 0
-4 -18 0
-5 -10 0
-5 -11 0
-5 -12 0
-5 -13 0
-5 -15 0
-5 -16 0
-5 -17 0
-5 -18 0
-6 -10 0
-6 -11 0
-6 -12 0
-6 -13 0
-6 -14 0
-6 -16 0
-6 -17 0
-6 -18 0
-7 -10 0
-7 -11 0
-7 -12 0
-7 -13 0
-7 -14 0
-7 -15 0
-7 -17 0
-7 -18 0
-8 -10 0
-8 -11 0
-8 -12 0
-8 -13 0
-8 -14 0
-8 -15 0
-8 -16 0
-8 -18 0
-9 -10 0
-9 -11 0
-9 -12 0
-9 -13 0
-9 -14 0
-9 -15 0
-9 -16 0
-9 -17 0
-1 -29 0
-1 -30 0
-1 -31 0
-1 -32 0
-1 -33 0
-1 -34 0
-1 -35 0
-1 -36 0
-2 -28 0
-2 -30 0
-2 -31 0
-2 -32 0
-2 -33 0
-2 -34 0
-2 -35 0
-2 -36 0
-3 -28 0
-3 -29 0
-3 -31 0
-3 -32 0
-3 -33 0
-3 -34 0
-3 -35 0
-3 -36 0
-4 -28 0
-4 -29 0
-4 -30 0
-4 -32 0
-4 -33 0
-4 -34 0
-4 -35 0
-4 -36 0
-5 -28 0
-5 -29 0
-5 -30 0
-5 -31 0
-5 -33 0
-5 -34 0
-5 -35 0
-5 -36 0
-6 -28 0
-6 -29 0
-6 -30 0
-6 -31 0
-6 -32 0
-6 -34 0
-6 -35 0
-6 -36 0
-7 -28 0
-7 -29 0
-7 -30 0
-7 -31 0
-7 -32 0
-7 -33 0
-7 -35 0
-7 -36 0
-8 -28 0
-8 -29 0
-8 -30 0
-8 -31 0
-8 -32 0
-8 -33 0
-8 -34 0
-8 -36 0
-9 -28 0
-9 -29 0
-9 -30 0
-9 -31 0
-9 -32 0
-9 -33 0
-9 -34 0
-9 -35 0
-1 -38 0
-1 -39 0
-1 -40 0
-1 -41 0
-1 -42 0
-1 -43 0
-1 -44 0
-1 -45 0
-2 -37 0
-2 -39 0
-2 -40 0
-2 -41 0
-2 -42 0
-2 -43 0
-2 -44 0
-2 -45 0
-3 -37 0
-3 -38 0
-3 -40 0
-3 -41 0
-3 -42 0
-3 -43 0
-3 -44 0
-3 -45 0
-4 -37 0
-4 -38 0
-4 -39 0
-4 -41 0
-4 -42 0
-4 -43 0
-4 -44 0
-4 -45 0
-5 -37 0
-5 -38 0
-5 -39 0
-5 -40 0
-5 -42 0
-5 -43 0
-5 -44 0
-5 -45 0
-6 -37 0
-6 -38 0
-6 -39 0
-6 -40 0
-6 -41 0
-6 -43 0
-6 -44 0
-6 -45 0
-7 -37 0
-7 -38 0
-7 -39 0
-7 -40 0
-7 -41 0
-7 -42 0
-7 -44 0
-7 -45 0
-8 -37 0
-8 -38 0
-8 -39 0
-8 -40 0
-8 -41 0
-8 -42 0
-8 -43 0
-8 -45 0
-9 -37 0
-9 -38 0
-9 -39 0
-9 -40 0
-9 -41 0
-9 -42 0
-9 -43 0
-9 -44 0
-1 -47 0
-1 -48 0
-1 -49 0
-1 -50 0
-1 -51 0
-1 -52 0
-1 -53 0
-1 -54 0
-2 -46 0
-2 -48 0
-2 -49 0
-2 -50 0
-2 -51 0
-2 -52 0
-2 -53 0
-2 -54 0
-3 -46 0
-3 -47 0
-3 -49 0
-3 -50 0
-3 -51 0
-3 -52 0
-3 -53 0
-3 -54 0
-4 -46 0
-4 -47 0
-4 -48 0
-4 -50 0
-4 -51 0
-4 -52 0
-4 -53 0
-4 -54 0
-5 -46 0
-5 -47 0
-5 -48 0
-5 -49 0
-5 -51 0
-5 -52 0
-5 -53 0
-5 -54 0
-6 -46 0
-6 -47 0
-6 -48 0
-6 -49 0
-6 -50 0
-6 -52 0
-6 -53 0
-6 -54 0
-7 -46 0
-7 -47 0
-7 -48 0
-7 -49 0
-7 -50 0
-7 -51 0
-7 -53 0
-7 -54 0
-8 -46 0
-8 -47 0
-8 -48 0
-8 -49 0
-8 -50 0
-8 -51 0
-8 -52 0
-8 -54 0
-9 -46 0
-9 -47 0
-9 -48 0
-9 -49 0
-9 -50 0
-9 -51 0
-9 -52 0
-9 -53 0
-1 -65 0
-1 -66 0
-1 -67 0
-1 -68 0
-1 -69 0
-1 -70 0
-1 -71 0
-1 -72 0
-2 -64 0
-2 -66 0
-2 -67 0
-2 -68 0
-2 -69 0
-2 -70 0
-2 -71 0
-2 -72 0
-3 -64 0
-3 -65 0
-3 -67 0
-3 -68 0
-3 -69 0
-3 -70 0
-3 -71 0
-3 -72 0
-4 -64 0
-4 -65 0
-4 -66 0
-4 -68 0
-4 -69 0
-4 -70 0
-4 -71 0
-4 -72 0
-5 -64 0
-5 -65 0
-5 -66 0
-5 -67 0
-5 -69 0
-5 -70 0
-5 -71 0
-5 -72 0
-6 -64 0
-6 -65 0
-6 -66 0
-6 -67 0
-6 -68 0
-6 -70 0
-6 -71 0
-6 -72 0
-7 -64 0
-7 -65 0
-7 -66 0
-7 -67 0
-7 -68 0
-7 -69 0
-7 -71 0
-7 -72 0
-8 -64 0
-8 -65 0
-8 -66 0
-8 -67 0
-8 -68 0
-8 -69 0
-8 -70 0
-8 -72 0
-9 -64 0
-9 -65 0
-9 -66 0
-9 -67 0
-9 -68 0
-9 -69 0
-9 -70 0
-9 -71 0
-1 -74 0
-1 -75 0
-1 -76 0
-1 -77 0
-1 -78 0
-1 -79 0
-1 -80 0
-1 -81 0
-2 -73 0
-2 -75 0
-2 -76 0
-2 -77 0
-2 -78 0
-2 -79 0
-2 -80 0
-2 -81 0
-3 -73 0
-3 -74 0
-3 -76 0
-3 -77 0
-3 -78 0
-3 -79 0
-3 -80 0
-3 -81 0
-4 -73 0
-4 -74 0
-4 -75 0
-4 -77 0
-4 -78 0
-4 -79 0
-4 -80 0
-4 -81 0
-5 -73 0
-5 -74 0
-5 -75 0
-5 -76 0
-5 -78 0
-5 -79 0
-5 -80 0
-5 -81 0
-6 -73 0
-6 -74 0
-6 -75 0
-6 -76 0
-6 -77 0
-6 -79 0
-6 -80 0
-6 -81 0
-7 -73 0
-7 -74 0
-7 -75 0
-7 -76 0
-7 -77 0
-7 -78 0
-7 -80 0
-7 -81 0
-8 -73 0
-8 -74 0
-8 -75 0
-8 -76 0
-8 -77 0
-8 -78 0
-8 -79 0
-8 -81 0
-9 -73 0
-9 -74 0
-9 -75 0
-9 -76 0
-9 -77 0
-9 -78 0
-9 -79 0
-9 -80 0
-10 -20 0
-10 -21 0
-10 -22 0
-10 -23 0
-10 -24 0
-10 -25 0
-10 -26 0
-10 -27 0
-11 -19 0
-11 -21 0
-11 -22 0
-11 -23 0
-11 -24 0
-11 -25 0
-11 -26 0
-11 -27 0
-12 -19 0
-12 -20 0
-12 -22 0
-12 -23 0
-12 -24 0
-12 -25 0
-12 -26 0
-12 -27 0
-13 -19 0
-13 -20 0
-13 -21 0
-13 -23 0
-13 -24 0
-13 -25 0
-13 -26 0
-13 -27 0
-14 -19 0
-14 -20 0
-14 -21 0
-14 -22 0
-14 -24 0
-14 -25 0
-14 -26 0
-14 -27 0
-15 -19 0
-15 -20 0
-15 -21 0
-15 -22 0
-15 -23 0
-15 -25 0
-15 -26 0
-15 -27 0
-16 -19 0
-16 -20 0
-16 -21 0
-16 -22 0
-16 -23 0
-16 -24 0
-16 -26 0
-16 -27 0
-17 -19 0
-17 -20 0
-17 -21 0
-17 -22 0
-17 -23 0
-17 -24 0
-17 -25 0
-17 -27 0
-18 -19 0
-18 -20 0
-18 -21 0
-18 -22 0
-18 -23 0
-18 -24 0
-18 -25 0
-18 -26 0
-10 -47 0
-10 -48 0
-10 -49 0
-10 -50 0
-10 -51 0
-10 -52 0
-10 -53 0
-10 -54 0
-11 -46 0
-11 -48 0
-11 -49 0
-11 -50 0
-11 -51 0
-11 -52 0
-11 -53 0
-11 -54 0
-12 -46 0
-12 -47 0
-12 -49 0
-12 -50 0
-12 -51 0
-12 -52 0
-12 -53 0
-12 -54 0
-13 -46 0
-13 -47 0
-13 -48 0
-13 -50 0
-13 -51 0
-13 -52 0
-13 -53 0
-13 -54 0
-14 -46 0
-14 -47 0
-14 -48 0
-14 -49 0
-14 -51 0
-14 -52 0
-14 -53 0
-14 -54 0
-15 -46 0
-15 -47 0
-15 -48 0
-15 -49 0
-15 -50 0
-15 -52 0
-15 -53 0
-15 -54 0
-16 -46 0
-16 -47 0
-16 -48 0
-16 -49 0
-16 -50 0
-16 -51 0
-16 -53 0
-16 -54 0
-17 -46 0
-17 -47 0
-17 -48 0
-17 -49 0
-17 -50 0
-17 -51 0
-17 -52 0
-17 -54 0
-18 -46 0
-18 -47 0
-18 -48 0
-18 -49 0
-18 -50 0
-18 -51 0
-18 -52 0
-18 -53 0
-10 -56 0
-10 -57 0
-10 -58 0
-10 -59 0
-10 -60 0
-10 -61 0
-10 -62 0
-10 -63 0
-11 -55 0
-11 -57 0
-11 -58 0
-11 -59 0
-11 -60 0
-11 -61 0
-11 -62 0
-11 -63 0
-12 -55 0
-12 -56 0
-12 -58 0
-12 -59 0
-12 -60 0
-12 -61 0
-12 -62 0
-12 -63 0
-13 -55 0
-13 -56 0
-13 -57 0
-13 -59 0
-13 -60 0
-13 -61 0
-13 -62 0
-13 -63 0
-14 -55 0
-14 -56 0
-14 -57 0
-14 -58 0
-14 -60 0
-14 -61 0
-14 -62 0
-14 -63 0
-15 -55 0
-15 -56 0
-15 -57 0
-15 -58 0
-15 -59 0
-15 -61 0
-15 -62 0
-15 -63 0
-16 -55 0
-16 -56 0
-16 -57 0
-16 -58 0
-16 -59 0
-16 -60 0
-16 -62 0
-16 -63 0
-17 -55 0
-17 -56 0
-17 -57 0
-17 -58 0
-17 -59 0
-17 -60 0
-17 -61 0
-17 -63 0
-18 -55 0
-18 -56 0
-18 -57 0
-18 -58 0
-18 -59 0
-18 -60 0
-18 -61 0
-18 -62 0
-19 -47 0
-19 -48 0
-19 -49 0
-19 -50 0
-19 -51 0
-19 -52 0
-19 -53 0
-19 -54 0
-20 -46 0
-20 -48 0
-20 -49 0
-20 -50 0
-20 -51 0
-20 -52 0
-20 -53 0
-20 -54 0
-21 -46 0
-21 -47 0
-21 -49 0
-21 -50 0
-21 -51 0
-21 -52 0
-21 -53 0
-21 -54 0
-22 -46 0
-22 -47 0
-22 -48 0
-22 -50 0
-22 -51 0
-22 -52 0
-22 -53 0
-22 -54 0
-23 -46 0
-23 -47 0
-23 -48 0
-23 -49 0
-23 -51 0
-23 -52 0
-23 -53 0
-23 -54 0
-24 -46 0
-24 -47 0
-24 -48 0
-24 -49 0
-24 -50 0
-24 -52 0
-24 -53 0
-24 -54 0
-25 -46 0
-25 -47 0
-25 -48 0
-25 -49 0
-25 -50 0
-25 -51 0
-25 -53 0
-25 -54 0
-26 -46 0
-26 -47 0
-26 -48 0
-26 -49 0
-26 -50 0
-26 -51 0
-26 -52 0
-26 -54 0
-27 -46 0
-27 -47 0
-27 -48 0
-27 -49 0
-27 -50 0
-27 -51 0
-27 -52 0
-27 -53 0
-19 -56 0
-19 -57 0
-19 -58 0
-19 -59 0
-19 -60 0
-19 -61 0
-19 -62 0
-19 -63 0
-20 -55 0
-20 -57 0
-20 -58 0
-20 -59 0
-20 -60 0
-20 -61 0
-20 -62 0
-20 -63 0
-21 -55 0
-21 -56 0
-21 -58 0
-21 -59 0
-21 -60 0
-21 -61 0
-21 -62 0
-21 -63 0
-22 -55 0
-22 -56 0
-22 -57 0
-22 -59 0
-22 -60 0
-22 -61 0
-22 -62 0
-22 -63 0
-23 -55 0
-23 -56 0
-23 -57 0
-23 -58 0
-23 -60 0
-23 -61 0
-23 -62 0
-23 -63 0
-24 -55 0
-24 -56 0
-24 -57 0
-24 -58 0
-24 -59 0
-24 -61 0
-24 -62 0
-24 -63 0
-25 -55 0
-25 -56 0
-25 -57 0
-25 -58 0
-25 -59 0
-25 -60 0
-25 -62 0
-25 -63 0
-26 -55 0
-26 -56 0
-26 -57 0
-26 -58 0
-26 -59 0
-26 -60 0
-26 -61 0
-26 -63 0
-27 -55 0
-27 -56 0
-27 -57 0
-27 -58 0
-27 -59 0
-27 -60 0
-27 -61 0
-27 -62 0
-37 -47 0
-37 -48 0
-37 -49 0
-37 -50 0
-37 -51 0
-37 -52 0
-37 -53 0
-37 -54 0
-38 -46 0
-38 -48 0
-38 -49 0
-38 -50 0
-38 -51 0
-38 -52 0
-38 -53 0
-38 -54 0
-39 -46 0
-39 -47 0
-39 -49 0
-39 -50 0
-39 -51 0
-39 -52 0
-39 -53 0
-39 -54 0
-40 -46 0
-40 -47 0
-40 -48 0
-40 -50 0
-40 -51 0
-40 -52 0
-40 -53 0
-40 -54 0
-41 -46 0
-41 -47 0
-41 -48 0
-41 -49 0
-41 -51 0
-41 -52 0
-41 -53 0
-41 -54 0
-42 -46 0
-42 -47 0
-42 -48 0
-42 -49 0
-42 -50 0
-42 -52 0
-42 -53 0
-42 -54 0
-43 -46 0
-43 -47 0
-43 -48 0
-43 -49 0
-43 -50 0
-43 -51 0
-43 -53 0
-43 -54 0
-44 -46 0
-44 -47 0
-44 -48 0
-44 -49 0
-44 -50 0
-44 -51 0
-44 -52 0
-44 -54 0
-45 -46 0
-45 -47 0
-45 -48 0
-45 -49 0
-45 -50 0
-45 -51 0
-45 -52 0
-45 -53 0
-55 -65 0
-55 -66 0
-55 -67 0
-55 -68 0
-55 -69 0
-55 -70 0
-55 -71 0
-55 -72 0
-56 -64 0
-56 -66 0
-56 -67 0
-56 -68 0
-56 -69 0
-56 -70 0
-56 -71 0
-56 -72 0
-57 -64 0
-57 -65 0
-57 -67 0
-57 -68 0
-57 -69 0
-57 -70 0
-57 -71 0
-57 -72 0
-58 -64 0
-58 -65 0
-58 -66 0
-58 -68 0
-58 -69 0
-58 -70 0
-58 -71 0
-58 -72 0
-59 -64 0
-59 -65 0
-59 -66 0
-59 -67 0
-59 -69 0
-59 -70 0
-59 -71 0
-59 -72 0
-60 -64 0
-60 -65 0
-60 -66 0
-60 -67 0
-60 -68 0
-60 -70 0
-60 -71 0
-60 -72 0
-61 -64 0
-61 -65 0
-61 -66 0
-61 -67 0
-61 -68 0
-61 -69 0
-61 -71 0
-61 -72 0
-62 -64 0
-62 -65 0
-62 -66 0
-62 -67 0
-62 -68 0
-62 -69 0
-62 -70 0
-62 -72 0
-63 -64 0
-63 -65 0
-63 -66 0
-63 -67 0
-63 -68 0
-63 -69 0
-63 -70 0
-63 -71 0
-55 -74 0
-55 -75 0
-55 -76 0
-55 -77 0
-55 -78 0
-55 -79 0
-55 -80 0
-55 -81 0
-56 -73 0
-56 -75 0
-56 -76 0
-56 -77 0
-56 -78 0
-56 -79 0
-56 -80 0
-56 -81 0
-57 -73 0
-57 -74 0
-57 -76 0
-57 -77 0
-57 -78 0
-57 -79 0
-57 -80 0
-57 -81 0
-58 -73 0
-58 -74 0
-58 -75 0
-58 -77 0
-58 -78 0
-58 -79 0
-58 -80 0
-58 -81 0
-59 -73 0
-59 -74 0
-59 -75 0
-59 -76 0
-59 -78 0
-59 -79 0
-59 -80 0
-59 -81 0
-60 -73 0
-60 -74 0
-60 -75 0
-60 -76 0
-60 -77 0
-60 -79 0
-60 -80 0
-60 -81 0
-61 -73 0
-61 -74 0
-61 -75 0
-61 -76 0
-61 -77 0
-61 -78 0
-61 -80 0
-61 -81 0
-62 -73 0
-62 -74 0
-62 -75 0
-62 -76 0
-62 -77 0
-62 -78 0
-62 -79 0
-62 -81 0
-63 -73 0
-63 -74 0
-63 -75 0
-63 -76 0
-63 -77 0
-63 -78 0
-63 -79 0
-63 -80 0
-1 -2 0
-1 -3 0
-1 -4 0
-1 -5 0
-1 -6 0
-1 -7 0
-1 -8 0
-1 -9 0
-2 -3 0
-2 -4 0
-2 -5 0
-2 -6 0
-2 -7 0
-2 -8 0
-2 -9 0
-3 -4 0
-3 -5 0
-3 -6 0
-3 -7 0
-3 -8 0
-3 -9 0
-4 -5 0
-4 -6 0
-4 -7 0
-4 -8 0
-4 -9 0
-5 -6 0
-5 -7 0
-5 -8 0
-5 -9 0
-6 -7 0
-6 -8 0
-6 -9 0
-7 -8 0
-7 -9 0
-8 -9 0
-10 -11 0
-10 -12 0
-10 -13 0
-10 -14 0
-10 -15 0
-10 -16 0
-10 -17 0
-10 -18 0
-11 -12 0
-11 -13 0
-11 -14 0
-11 -15 0
-11 -16 0
-11 -17 0
-11 -18 0
-12 -13 0
-12 -14 0
-12 -15 0
-12 -16 0
-12 -17 0
-12 -18 0
-13 -14 0
-13 -15 0
-13 -16 0
-13 -17 0
-13 -18 0
-14 -15 0
-14 -16 0
-14 -17 0
-14 -18 0
-15 -16 0
-15 -17 0
-15 -18 0
-16 -17 0
-16 -18 0
-17 -18 0
-19 -20 0
-19 -21 0
-19 -22 0
-19 -23 0
-19 -24 0
-19 -25 0
-19 -26 0
-19 -27 0
-20 -21 0
-20 -22 0
-20 -23 0
-20 -24 0
-20 -25 0
-20 -26 0
-20 -27 0
-21 -22 0
-21 -23 0
-21 -24 0
-21 -25 0
-21 -26 0
-21 -27 0
-22 -23 0
-22 -24 0
-22 -25 0
-22 -26 0
-22 -27 0
-23 -24 0
-23 -25 0
-23 -26 0
-23 -27 0
-24 -25 0
-24 -26 0
-24 -27 0
-25 -26 0
-25 -27 0
-26 -27 0
-28 -29 0
-28 -30 0
-28 -31 0
-28 -32 0
-28 -33 0
-28 -34 0
-28 -35 0
-28 -36 0
-29 -30 0
-29 -31 0
-29 -32 0
-29 -33 0
-29 -34 0
-29 -35 0
-29 -36 0
-30 -31 0
-30 -32 0
-30 -33 0
-30 -34 0
-30 -35 0
-30 -36 0
-31 -32 0
-31 -33 0
-31 -34 0
-31 -35 0
-31 -36 0
-32 -33 0
-32 -34 0
-32 -35 0
-32 -36 0
-33 -34 0
-33 -35 0
-33 -36 0
-34 -35 0
-34 -36 0
-35 -36 0
-37 -38 0
-37 -39 0
-37 -40 0
-37 -41 0
-37 -42 0
-37 -43 0
-37 -44 0
-37 -45 0
-38 -39 0
-38 -40 0
-38 -41 0
-38 -42 0
-38 -43 0
-38 -44 0
-38 -45 0
-39 -40 0
-39 -41 0
-39 -42 0
-39 -43 0
-39 -44 0
-39 -45 0
-40 -41 0
-40 -42 0
-40 -43 0
-40 -44 0
-40 -45 0
-41 -42 0
-41 -43 0
-41 -44 0
-41 -45 0
-42 -43 0
-42 -44 0
-42 -45 0
-43 -44 0
-43 -45 0
-44 -45 0
-46 -47 0
-46 -48 0
-46 -49 0
-46 -50 0
-46 -51 0
-46 -52 0
-46 -53 0
-46 -54 0
-47 -48 0
-47 -49 0
-47 -50 0
-47 -51 0
-47 -52 0
-47 -53 0
-47 -54 0
-48 -49 0
-48 -50 0
-48 -51 0
-48 -52 0
-48 -53 0
-48 -54 0
-49 -50 0
-49 -51 0
-49 -52 0
-49 -53 0
-49 -54 0
-50 -51 0
-50 -52 0
-50 -53 0
-50 -54 0
-51 -52 0
-51 -53 0
-51 -54 0
-52 -53 0
-52 -54 0
-53 -54 0
-55 -56 0
-55 -57 0
-55 -58 0
-55 -59 0
-55 -60 0
-55 -61 0
-55 -62 0
-55 -63 0
-56 -57 0
-56 -58 0
-56 -59 0
-56 -60 0
-56 -61 0
-56 -62 0
-56 -63 0
-57 -58 0
-57 -59 0
-57 -60 0
-57 -61 0
-57 -62 0
-57 -63 0
-58 -59 0
-58 -60 0
-58 -61 0
-58 -62 0
-58 -63 0
-59 -60 0
-59 -61 0
-59 -62 0
-59 -63 0
-60 -61 0
-60 -62 0
-60 -63 0
-61 -62 0
-61 -63 0
-62 -63 0
-64 -65 0
-64 -66 0
-64 -67 0
-64 -68 0
-64 -69 0
-64 -70 0
-64 -71 0
-64 -72 0
-65 -66 0
-65 -67 0
-65 -68 0
-65 -69 0
-65 -70 0
-65 -71 0
-65 -72 0
-66 -67 0
-66 -68 0
-66 -69 0
-66 -70 0
-66 -71 0
-66 -72 0
-67 -68 0
-67 -69 0
-67 -70 0
-67 -71 0
-67 -72 0
-68 -69 0
-68 -70 0
-68 -71 0
-68 -72 0
-69 -70 0
-69 -71 0
-69 -72 0
-70 -71 0
-70 -72 0
-71 -72 0
-73 -74 0
-73 -75 0
-73 -76 0
-73 -77 0
-73 -78 0
-73 -79 0
-73 -80 0
-73 -81 0
-74 -75 0
-74 -76 0
-74 -77 0
-74 -78 0
-74 -79 0
-74 -80 0
-74 -81 0
-75 -76 0
-75 -77 0
-75 -78 0
-75 -79 0
-75 -80 0
-75 -81 0
-76 -77 0
-76 -78 0
-76 -79 0
-76 -80 0
-76 -81 0
-77 -78 0
-77 -79 0
-77 -80 0
-77 -81 0
-78 -79 0
-78 -80 0
-78 -81 0
-79 -80 0
-79 -81 0
-80 -81 0
-1 -10  0
-1 -19  0
-1 -28  0
-1 -37  0
-1 -46  0
-1 -55  0
-1 -64  0
-1 -73  0
-2 -11  0
-2 -20  0
-2 -29  0
-2 -38  0
-2 -47  0
-2 -56  0
-2 -65  0
-2 -74  0
-3 -12  0
-3 -21  0
-3 -30  0
-3 -39  0
-3 -48  0
-3 -57  0
-3 -66  0
-3 -75  0
-4 -13  0
-4 -22  0
-4 -31  0
-4 -40  0
-4 -49  0
-4 -58  0
-4 -67  0
-4 -76  0
-5 -14  0
-5 -23  0
-5 -32  0
-5 -41  0
-5 -50  0
-5 -59  0
-5 -68  0
-5 -77  0
-6 -15  0
-6 -24  0
-6 -33  0
-6 -42  0
-6 -51  0
-6 -60  0
-6 -69  0
-6 -78  0
-7 -16  0
-7 -25  0
-7 -34  0
-7 -43  0
-7 -52  0
-7 -61  0
-7 -70  0
-7 -79  0
-8 -17  0
-8 -26  0
-8 -35  0
-8 -44  0
-8 -53  0
-8 -62  0
-8 -71  0
-8 -80  0
-9 -18  0
-9 -27  0
-9 -36  0
-9 -45  0
-9 -54  0
-9 -63  0
-9 -72  0
-9 -81  0
-10 -19  0
-10 -28  0
-10 -37  0
-10 -46  0
-10 -55  0
-10 -64  0
-10 -73  0
-11 -20  0
-11 -29  0
-11 -38  0
-11 -47  0
-11 -56  0
-11 -65  0
-11 -74  0
-12 -21  0
-12 -30  0
-12 -39  0
-12 -48  0
-12 -57  0
-12 -66  0
-12 -75  0
-13 -22  0
-13 -31  0
-13 -40  0
-13 -49  0
-13 -58  0
-13 -67  0
-13 -76  0
-14 -23  0
-14 -32  0
-14 -41  0
-14 -50  0
-14 -59  0
-14 -68  0
-14 -77  0
-15 -24  0
-15 -33  0
-15 -42  0
-15 -51  0
-15 -60  0
-15 -69  0
-15 -78  0
-16 -25  0
-16 -34  0
-16 -43  0
-16 -52  0
-16 -61  0
-16 -70  0
-16 -79  0
-17 -26  0
-17 -35  0
-17 -44  0
-17 -53  0
-17 -62  0
-17 -71  0
-17 -80  0
-18 -27  0
-18 -36  0
-18 -45  0
-18 -54  0
-18 -63  0
-18 -72  0
-18 -81  0
-19 -28  0
-19 -37  0
-19 -46  0
-19 -55  0
-19 -64  0
-19 -73  0
-20 -29  0
-20 -38  0
-20 -47  0
-20 -56  0
-20 -65  0
-20 -74  0
-21 -30  0
-21 -39  0
-21 -48  0
-21 -57  0
-21 -66  0
-21 -75  0
-22 -31  0
-22 -40  0
-22 -49  0
-22 -58  0
-22 -67  0
-22 -76  0
-23 -32  0
-23 -41  0
-23 -50  0
-23 -59  0
-23 -68  0
-23 -77  0
-24 -33  0
-24 -42  0
-24 -51  0
-24 -60  0
-24 -69  0
-24 -78  0
-25 -34  0
-25 -43  0
-25 -52  0
-25 -61  0
-25 -70  0
-25 -79  0
-26 -35  0
-26 -44  0
-26 -53  0
-26 -62  0
-26 -71  0
-26 -80  0
-27 -36  0
-27 -45  0
-27 -54  0
-27 -63  0
-27 -72  0
-27 -81  0
-28 -37  0
-28 -46  0
-28 -55  0
-28 -64  0
-28 -73  0
-29 -38  0
-29 -47  0
-29 -56  0
-29 -65  0
-29 -74  0
-30 -39  0
-30 -48  0
-30 -57  0
-30 -66  0
-30 -75  0
-31 -40  0
-31 -49  0
-31 -58  0
-31 -67  0
-31 -76  0
-32 -41  0
-32 -50  0
-32 -59  0
-32 -68  0
-32 -77  0
-33 -42  0
-33 -51  0
-33 -60  0
-33 -69  0
-33 -78  0
-34 -43  0
-34 -52  0
-34 -61  0
-34 -70  0
-34 -79  0
-35 -44  0
-35 -53  0
-35 -62  0
-35 -71  0
-35 -80  0
-36 -45  0
-36 -54  0
-36 -63  0
-36 -72  0
-36 -81  0
-37 -46  0
-37 -55  0
-37 -64  0
-37 -73  0
-38 -47  0
-38 -56  0
-38 -65  0
-38 -74  0
-39 -48  0
-39 -57  0
-39 -66  0
-39 -75  0
-40 -49  0
-40 -58  0
-40 -67  0
-40 -76  0
-41 -50  0
-41 -59  0
-41 -68  0
-41 -77  0
-42 -51  0
-42 -60  0
-42 -69  0
-42 -78  0
-43 -52  0
-43 -61  0
-43 -70  0
-43 -79  0
-44 -53  0
-44 -62  0
-44 -71  0
-44 -80  0
-45 -54  0
-45 -63  0
-45 -72  0
-45 -81  0
-46 -55  0
-46 -64  0
-46 -73  0
-47 -56  0
-47 -65  0
-47 -74  0
-48 -57  0
-48 -66  0
-48 -75  0
-49 -58  0
-49 -67  0
-49 -76  0
-50 -59  0
-50 -68  0
-50 -77  0
-51 -60  0
-51 -69  0
-51 -78  0
-52 -61  0
-52 -70  0
-52 -79  0
-53 -62  0
-53 -71  0
-53 -80  0
-54 -63  0
-54 -72  0
-54 -81  0
-55 -64  0
-55 -73  0
-56 -65  0
-56 -74  0
-57 -66  0
-57 -75  0
-58 -67  0
-58 -76  0
-59 -68  0
-59 -77  0
-60 -69  0
-60 -78  0
-61 -70  0
-61 -79  0
-62 -71  0
-62 -80  0
-63 -72  0
-63 -81  0
-64 -73  0
-65 -74  0
-66 -75  0
-67 -76  0
-68 -77  0
-69 -78  0
-70 -79  0
-71 -80  0
-72 -81  0
